unsat
(:max-memory         18.52
 :memory             18.42
 :nlsat-arith-var    3
 :nlsat-atoms        10
 :nlsat-bool-var     2
 :nlsat-clauses      7
 :nlsat-conflicts    4
 :nlsat-decisions    1
 :nlsat-propagations 9
 :nlsat-stages       4
 :num-allocs         57928
 :rlimit-count       1884
 :time               0.00
 :total-time         0.01)
